NAME: test1724
TYPE: TSP
DIMENSION: 11
EDGE_WEIGHT_TYPE: EUC_2D
NODE_COORD_SECTION
1 63.493181046989676 86.09209720467223
2 6.6266113855391495 5.022241336511646
3 84.0598055491201 43.65132779027395
4 54.44890223266836 41.0585301792336
5 71.2638520701899 22.13633539527199
6 71.88602118325817 7.5842890535827046
7 81.62351212674787 39.07934478437556
8 95.58694147245672 87.03053554026971
9 6.5436481354884 64.79737419557193
10 36.93750320740904 25.84615727251086
11 68.28828512858016 83.47993461308269
EOF
